Clp0006I 0  Obj 0 Primal inf 399.99996 (400) Dual inf 1100592 (40000)
Clp0006I 200  Obj -24777 Primal inf 3458 (359)
Clp0006I 282  Obj -10101 Primal inf 1540 (354)
Clp0006I 359  Obj -10047 Primal inf 1720 (348)
Clp0006I 449  Obj -10038 Primal inf 1451 (337)
Clp0006I 547  Obj -9999 Primal inf 918.99997 (318)
Clp0006I 663  Obj -9999 Primal inf 1515 (308)
Clp0006I 717  Obj -9999 Primal inf 767.99997 (280)
Clp0006I 809  Obj -9999 Primal inf 652.99997 (269)
Clp0006I 908  Obj -9999 Primal inf 251.99998 (177)
Clp0006I 1016  Obj -9996 Primal inf 88.999993 (67)
Clp0006I 1102  Obj -9996 Primal inf 14.999999 (13)
Clp0006I 1152  Obj -9996
Clp0000I Optimal - objective value -9996
Clp0000I Optimal - objective value -9996
Node 0 depth 0 unsatisfied 0 sum 0 obj -9996 guess -9996 branching on -1
Clp0000I Optimal - objective value -9996
Cbc0004I Integer solution of -9996 found after 0 iterations and 0 nodes (0.19 seconds)
Cbc0001I Search completed - best objective -9996, took 0 iterations and 0 nodes (0.20 seconds)
Cbc0035I Maximum depth 0, 0 variables fixed on reduced cost
Clp0000I Optimal - objective value -9996
Clp0000I Optimal - objective value -9996
x_134 = 1
x_305 = 1
x_436 = 1
x_711 = 1
x_899 = 1
x_1130 = 1
x_1266 = 1
x_1514 = 1
x_1797 = 1
x_1819 = 1
x_2005 = 1
x_2297 = 1
x_2544 = 1
x_2634 = 1
x_2925 = 1
x_3120 = 1
x_3209 = 1
x_3450 = 1
x_3661 = 1
x_3847 = 1
x_4168 = 1
x_4395 = 1
x_4554 = 1
x_4721 = 1
x_4971 = 1
x_5013 = 1
x_5349 = 1
x_5464 = 1
x_5778 = 1
x_5979 = 1
x_6153 = 1
x_6214 = 1
x_6590 = 1
x_6722 = 1
x_6926 = 1
x_7140 = 1
x_7306 = 1
x_7422 = 1
x_7618 = 1
x_7853 = 1
x_8142 = 1
x_8377 = 1
x_8429 = 1
x_8792 = 1
x_8806 = 1
x_9011 = 1
x_9332 = 1
x_9539 = 1
x_9759 = 1
x_9935 = 1
x_10025 = 1
x_10317 = 1
x_10516 = 1
x_10615 = 1
x_10976 = 1
x_11101 = 1
x_11270 = 1
x_11400 = 1
x_11793 = 1
x_11872 = 1
x_12040 = 1
x_12355 = 1
x_12428 = 1
x_12773 = 1
x_12941 = 1
x_13123 = 1
x_13338 = 1
x_13445 = 1
x_13774 = 1
x_13903 = 1
x_14180 = 1
x_14249 = 1
x_14558 = 1
x_14745 = 1
x_14933 = 1
x_15059 = 1
x_15278 = 1
x_15583 = 1
x_15794 = 1
x_15801 = 1
x_16027 = 1
x_16223 = 1
x_16462 = 1
x_16709 = 1
x_16881 = 1
x_17084 = 1
x_17389 = 1
x_17454 = 1
x_17671 = 1
x_17833 = 1
x_18016 = 1
x_18280 = 1
x_18572 = 1
x_18763 = 1
x_18913 = 1
x_19076 = 1
x_19385 = 1
x_19543 = 1
x_19639 = 1
x_19860 = 1
x_20156 = 1
x_20310 = 1
x_20435 = 1
x_20608 = 1
x_20882 = 1
x_21007 = 1
x_21248 = 1
x_21495 = 1
x_21658 = 1
x_21982 = 1
x_22090 = 1
x_22357 = 1
x_22410 = 1
x_22718 = 1
x_22887 = 1
x_23137 = 1
x_23204 = 1
x_23546 = 1
x_23796 = 1
x_23896 = 1
x_24112 = 1
x_24203 = 1
x_24565 = 1
x_24761 = 1
x_24865 = 1
x_25074 = 1
x_25289 = 1
x_25485 = 1
x_25781 = 1
x_25936 = 1
x_26184 = 1
x_26331 = 1
x_26412 = 1
x_26621 = 1
x_26852 = 1
x_27093 = 1
x_27302 = 1
x_27457 = 1
x_27766 = 1
x_27907 = 1
x_28169 = 1
x_28315 = 1
x_28424 = 1
x_28632 = 1
x_28998 = 1
x_29037 = 1
x_29283 = 1
x_29402 = 1
x_29704 = 1
x_29991 = 1
x_30100 = 1
x_30292 = 1
x_30562 = 1
x_30724 = 1
x_30868 = 1
x_31148 = 1
x_31269 = 1
x_31567 = 1
x_31663 = 1
x_31898 = 1
x_32031 = 1
x_32277 = 1
x_32587 = 1
x_32679 = 1
x_32908 = 1
x_33026 = 1
x_33386 = 1
x_33442 = 1
x_33691 = 1
x_33817 = 1
x_34127 = 1
x_34350 = 1
x_34451 = 1
x_34760 = 1
x_34838 = 1
x_35147 = 1
x_35388 = 1
x_35443 = 1
x_35667 = 1
x_35856 = 1
x_36046 = 1
x_36286 = 1
x_36570 = 1
x_36751 = 1
x_36841 = 1
x_37152 = 1
x_37244 = 1
x_37575 = 1
x_37630 = 1
x_37919 = 1
x_38088 = 1
x_38275 = 1
x_38455 = 1
x_38694 = 1
x_38999 = 1
x_39073 = 1
x_39364 = 1
x_39420 = 1
x_39728 = 1
x_39929 = 1
real 0m0,382s user 0m0,353s sys 0m0,029s
